50
5469 1242 2801 4308 169 4982 9521 4286 8341 9601 205 131 4361 9600 4545 7977 6716 452 4659 6438 1598 1323 6675 3004 6907 2773 761 3746 7873 3490 5460 7740 2771 8669 411 4502 2417 1709 8999 1661 7802 4711 9453 8858 164 9516 5590 7268 1055 7188 
6469 2242 3801 5308 1169 5982 10521 5286 9341 10601 1205 1131 5361 10600 5545 8977 7716 1452 5659 7438 2598 2323 7675 4004 7907 3773 1761 4746 8873 4490 6460 8740 3771 9669 1411 5502 3417 2709 9999 2661 8802 5711 10453 9858 1164 10516 6590 8268 2055 8188 
118761
